<number of tasks>
100

<cycle time>
1000

<order strength>
0.898


<task times>
1 134
2 318
3 37
4 164
5 484
6 587
7 126
8 289
9 217
10 450
11 560
12 522
13 289
14 156
15 64
16 317
17 199
18 37
19 305
20 158
21 134
22 436
23 285
24 108
25 179
26 132
27 352
28 253
29 530
30 90
31 175
32 215
33 323
34 111
35 288
36 46
37 86
38 138
39 114
40 522
41 103
42 195
43 284
44 179
45 498
46 264
47 142
48 189
49 193
50 195
51 73
52 257
53 228
54 273
55 119
56 156
57 348
58 59
59 109
60 132
61 55
62 213
63 493
64 56
65 100
66 263
67 120
68 192
69 50
70 417
71 161
72 49
73 92
74 450
75 125
76 301
77 112
78 154
79 407
80 110
81 88
82 31
83 174
84 576
85 498
86 63
87 266
88 149
89 300
90 140
91 182
92 104
93 179
94 186
95 77
96 56
97 284
98 438
99 149
100 428

<precedence relations>
1,6
1,7
2,6
2,7
3,6
3,7
4,6
4,7
5,6
5,7
6,8
6,9
7,8
7,9
8,10
8,11
8,12
8,13
9,10
9,11
9,12
9,13
10,14
10,15
10,16
10,17
11,14
11,15
11,16
11,17
12,14
12,15
12,16
12,17
13,14
13,15
13,16
13,17
14,18
14,19
14,20
15,18
15,19
15,20
16,18
16,19
16,20
17,18
17,19
17,20
18,21
18,22
18,23
19,21
19,22
19,23
20,21
20,22
20,23
21,24
21,25
21,26
21,27
22,24
22,25
22,26
22,27
23,24
23,25
23,26
23,27
24,28
24,29
24,30
24,31
25,28
25,29
25,30
25,31
26,28
26,29
26,30
26,31
27,28
27,29
27,30
27,31
28,32
28,33
28,34
28,35
29,32
29,33
29,34
29,35
30,32
30,34
31,51
32,36
33,36
33,46
34,37
34,38
35,39
36,39
36,48
37,39
37,41
37,44
38,39
38,40
39,42
39,43
40,44
40,45
41,42
42,55
43,47
43,49
44,46
44,48
44,49
45,47
46,50
47,50
47,51
48,50
48,51
49,52
49,60
49,71
50,52
50,53
50,54
51,52
51,53
51,54
52,57
53,55
53,56
54,58
54,65
55,59
55,61
56,59
56,63
56,66
57,59
57,72
57,73
58,59
58,60
59,74
60,62
60,63
61,64
62,84
62,85
62,86
63,67
63,68
64,65
64,66
64,67
65,69
65,71
66,70
66,72
67,69
67,70
68,73
68,74
68,77
69,72
69,73
69,74
71,72
71,74
72,75
72,76
73,75
74,75
74,78
75,79
75,80
75,88
75,92
76,77
76,78
76,80
77,87
77,88
77,95
78,82
78,83
78,84
79,85
79,87
80,81
80,84
81,86
82,86
82,89
83,86
83,88
83,92
84,87
84,95
86,96
87,90
87,91
87,93
87,96
88,90
88,91
88,93
89,92
90,94
92,95
92,96
94,98
94,100
95,100
96,97
96,99
96,100

<end>
